c Random generated cnf formula, satisfiable: true
p cnf 10 50
7 6 8 0
7 9 5 0
2 -4 -1 0
-3 4 5 0
2 -8 -3 0
3 7 -1 0
-5 1 -9 0
4 5 -1 0
10 -7 -9 0
-3 8 1 0
-8 -1 -2 0
-2 1 -8 0
2 -5 -6 0
-4 -1 -5 0
1 -8 -5 0
1 10 2 0
7 -8 -5 0
-6 2 7 0
-1 8 -5 0
-8 -1 6 0
-1 3 -8 0
7 -2 8 0
5 -2 -7 0
9 -8 -6 0
-9 3 -4 0
2 3 4 0
-8 1 -2 0
1 -2 -7 0
-7 1 6 0
4 2 6 0
-3 7 1 0
-1 -5 -2 0
-9 -7 1 0
1 7 -6 0
7 3 -6 0
7 8 -3 0
1 6 7 0
4 -8 -10 0
-5 9 4 0
8 10 -7 0
7 5 9 0
-2 4 6 0
4 -2 7 0
-5 -4 2 0
3 6 10 0
-5 -6 -9 0
-4 6 2 0
10 -5 9 0
9 10 4 0
-1 -10 2 0
